solution status: gap limit reached
objective value:                          34202.45106
y#4                                                 1 	(obj:5700)
y#6                                                 1 	(obj:5700)
y#10                                                1 	(obj:5700)
y#18                                                1 	(obj:5700)
y#20                                                1 	(obj:5700)
y#26                                                1 	(obj:5700)
x#1#20                                              1 	(obj:0.04743)
x#2#26                                              1 	(obj:0.01785)
x#3#26                                              1 	(obj:0.0238)
x#4#10                                              1 	(obj:0.04369)
x#5#6                                               1 	(obj:0.06154)
x#6#18                                              1 	(obj:0.03876)
x#7#6                                               1 	(obj:0.00442)
x#8#10                                              1 	(obj:0.03077)
x#9#20                                              1 	(obj:0.03944)
x#10#6                                              1 	(obj:0.01972)
x#11#4                                              1 	(obj:0.05355)
x#12#20                                             1 	(obj:0.04573)
x#13#4                                              1 	(obj:0.02788)
x#14#10                                             1 	(obj:0.0306)
x#15#4                                              1 	(obj:0.04998)
x#16#4                                              1 	(obj:0.02142)
x#17#18                                             1 	(obj:0.02754)
x#18#20                                             1 	(obj:0.02618)
x#19#4                                              1 	(obj:0.0323)
x#20#10                                             1 	(obj:0.03791)
x#21#20                                             1 	(obj:0.06953)
x#22#18                                             1 	(obj:0.00731)
x#23#20                                             1 	(obj:0.05882)
x#24#18                                             1 	(obj:0.0187)
x#25#18                                             1 	(obj:0.02533)
x#26#4                                              1 	(obj:0.03332)
x#27#6                                              1 	(obj:0.05168)
x#28#4                                              1 	(obj:0.01972)
x#29#6                                              1 	(obj:0.02992)
x#30#18                                             1 	(obj:0.01513)
x#31#10                                             1 	(obj:0.0204)
x#32#20                                             1 	(obj:0.04828)
x#33#10                                             1 	(obj:0.06086)
x#34#6                                              1 	(obj:0.01207)
x#35#18                                             1 	(obj:0.04488)
x#36#20                                             1 	(obj:0.1173)
x#37#26                                             1 	(obj:0.03774)
x#38#26                                             1 	(obj:0.02567)
x#39#26                                             1 	(obj:0.02244)
x#40#18                             0.999999999999997 	(obj:0.03009)
x#41#4                                              1 	(obj:0.0425)
x#42#18                                             1 	(obj:0.03383)
x#43#4                                              1 	(obj:0.04029)
x#44#20                                             1 	(obj:0.09129)
x#45#6                                              1 	(obj:0.03825)
x#46#26                                             1 	(obj:0.05372)
x#47#10                                             1 	(obj:0.03162)
x#48#26                                             1 	(obj:0.00255)
x#49#6                                              1 	(obj:0.03706)
x#50#10                                             1 	(obj:0.05627)
x#51#6                                              1 	(obj:0.04828)
x#52#10                                             1 	(obj:0.05661)
x#53#26                                             1 	(obj:0.01904)
x#54#20                                             1 	(obj:0.02329)
x#55#6                                              1 	(obj:0.01853)
x#56#10                                             1 	(obj:0.02176)
x#57#6                                              1 	(obj:0.01105)
x#58#26                                             1 	(obj:0.02771)
x#59#26                                             1 	(obj:0.02958)
x#60#4                                              1 	(obj:0.03536)
x#61#6                                              1 	(obj:0.02686)
x#62#4                                              1 	(obj:0.02618)
x#63#4                                              1 	(obj:0.05406)
x#64#10                                             1 	(obj:0.06001)
x#65#20                                             1 	(obj:0.01394)
x#66#18                                             1 	(obj:0.01428)
x#67#10                                             1 	(obj:0.04641)
x#68#18                                             1 	(obj:0.01054)
x#69#4                                              1 	(obj:0.02618)
x#70#26                                             1 	(obj:0.02431)
